c ====================[ Coprocessor 7.1.0                    v7.1.0-dirty ]================================
c | Norbert Manthey. The use of the tool is limited to research only!                                     |
c | Contributors:                                                                                         |
c |     Kilian Gebhard                                                                                    |
c |     Lucas Kahlert, Franziska Krüger, Aaron Stephan                                                    |
c ============================[ Problem Statistics ]=======================================================
c |                                                                                                       |
c |  Number of variables:           260                                                                  |
c |  Number of clauses:            1430                                                                   |
c |  Parse time:                   0.00 s                                                                 |
c [STAT] CP3 0.01252 s-ppTime, 0 s-ipTime, 0.0125191 s-ppwTime, 0 s-ipwTime, 9 MB, ok 0.000533 s-ohTime, 
c [STAT] CP3(2) 2235 cls, 0 learnts, -805 rem-cls, 0 rem-learnts, 
c [STAT] UP 8e-06 s, 0 units, 0 cls, 0 lits
c [STAT] SuSi(1) 0.000441 s, 0 cls,  with 0 lits, 0 strengthed 
c [STAT] SuSi(2) 10685 subs-steps, 18746 strenght-steps, 0 increases, 0.000946s strengthening 
c [STAT] EE 0.000633 s, 0 steps 0 ee-lits 0 removedCls, 0 removedSubCls,
c [STAT] EE-gate 4.1e-05 s, 0 steps, 0.000488 extractGateTime, 
c [STAT] BVE(1) 0.000776 s, 0.000118 s spent on subsimp, 34 vars tested, 33 anticipations, 451 vars skipped, 2530 checks, 
c [STAT] BVE(2) 450 rem cls, with 1405 lits, 0 learnts rem, with 0 lits, 1255 new cls, with 5264 lits, 0 new learnts, with 0 lits, 
c [STAT] BVE(3) 34 vars eliminated, 0 units enqueued, 0 BC removed, with 0 lits, 0 blocked learnts removed, with 0 lits, 
c [STAT] BVE(4) 0 gateDefs, 0 usedGates, 0 gateSeconds, 
c [STAT] BVE(5) 32 incElims, 0 keepElims, 2 decElims, 805 totalAdds,
c [STAT] UNHIDE 0.001073 s, 0 cls, 0 totalLits, 0 lits 
c [STAT] UNHIDE(2) 0 prSecs, 0 prSteps, 0 L1units, 0 L2units, 0 L3units, 0 L4units, 0 L5units, 
c [STAT] UNHIDE(3) 0 EE-checks, 0 EE-cands, 0 EEs 
c [STAT] XOR 0.001158s, 0.00109 parse-s, 5.1e-05 reason-s, 
c [STAT] XOR(2) 0 xors, 0 subXors, 0 resXors, 0 clauses, 0 resClauses, 0 resTauts, 0 resStrength, 3660 findChecks, 
c [STAT] XOR(3) 0 steps, 520 empties, 0 listUnits, 0 useLists, 0 xorUnits, 0 eqs, 
c [STAT] XOR(4) 2231 participating, 0.830912 ratio, 0 simDecisions, 0 xorProps, 0 clsProps, 
c [STAT] BCE 0.001789 seconds, 16768 steps, 904 testLits, 0 remBCE, 0 BCMs, 0 BCMcands, 0 BCMlits, 
c [STAT] CLE 1 remCLE, 0 cleUnits, 
c [STAT] BCE-CLA 0 seconds, 0 steps, 0 testLits, 0 extClss, 0 extLits, 0 possibles, 
c [STAT] FM 0.004795 s, 0.000163 amo-s, 0.00552 fm-s, 0.001049 amt-s, 0 amos, 0 amts, 0 sameUnits, 0 deducedUnits, 0 propUnits, 0 cls, 0 steps, 22633 searchSteps, 0 addDups, 
c [STAT] FM(2) 0 irregulars, 0 pureAmoLits, 0 diff, 0 discards, 0 addedCs, 0 removedCs, 0 newAmos, 0 discardedNewAmos, 
c [STAT] FM(3) 0 newAmoBinCls, 0 newCls, 0 newAlos, 0 newAlks, 0 duplicates, 0 garbageCollecst, 
c [STAT] FM(4) 1.8e-05 2PrdTime, 0 2PrAmos, 0 2PrLits, 2e-06 dedAloTime, 0 dedAlos, 
c [STAT] FM(5) time: 0.003391 s,steps: 23648 cards: 0 failed: 3664 extLits: 0 redDegree: 0 probes: 4347 conflictProbes: 1 savedPreCls: 0 savedPostCls: 0 units: 10797
c [STAT] DENSE 34 gaps
c |  Simplification time:          0.01 s                                                                 |
c |                                                                                                       |
c ==============================[ Writing DIMACS ]=========================================================
c =============================[ Writing Undo Info ]=======================================================
c write undo for 239 clauses and 0 units
c preprocessed 0 seconds
c starting sparrow solver
c Instance name       :  /home/lorenz/SAT2018/s2r_bin/tmp/cp_tmpCNF_47280
c Number of variables :  226
c Number of literals  :  452
c Number of Clauses   :  2235
c MaxNumOccurences    :  61
c MaxClauseSize       :  5
c MinClauseSize       :  2
c Ratio               :  9.8894
c Parameter setting   :  5 SAT

c Sparrow 2014 Parameteres: 
c c1                  : 2.8500
c c2                  : 4
c c3                  : 75000
c smoothing prob.     : 1.000
c seed                : 0
c XOR implementation  : yes
c using:              : random clause selection
c maxTries            : 9223372036854775807
c maxFlips            : 500000000
c timeout             : 900sec
c luby restarts       : yes
c luby base           : 262144
c keep assignement    : yes
c sp sequence:        : 0.000, 0.100, 0.600, 1.000, 0.900, 0.600, 0.800, 0.600, 0.000, 
c -->Starting solver  : 

c UNKNOWN best(   3) current(   4) (5.20000        sec)
c EndStatistics:
c numFlips                      : 13722880 
c numProbWalks                  : 11466723  (83.56%) 
c gradientWalks                 : 2256157   (16.44%) 
c numSmooth                     : 0         (0.00%) 
c numWeight                     : 0         (0.00%) 
c Try CPU Time                  : 5.200   
c totalTries                    : 508      
c totalFlips                    : 500000000
c flips/sec                     : 2227072 
c Total CPU Time                : 224.510 sec
c solved 224 seconds
c parse model from /home/lorenz/SAT2018/s2r_bin/tmp/cp_model_47280
c WARNING: could not find any solution information!
c opened var map /home/lorenz/SAT2018/s2r_bin/tmp/cp_undo_47280.map for reading ... 
c use Riss 7.1
c [STAT] CP3 0.014073 s-ppTime, 0 s-ipTime, 0.0140727 s-ppwTime, 0 s-ipwTime, 9 MB, ok 0.000497 s-ohTime, 
c [STAT] CP3(2) 1964 cls, 0 learnts, -534 rem-cls, 0 rem-learnts, 
c [STAT] UP 6e-06 s, 0 units, 0 cls, 0 lits
c [STAT] SuSi(1) 0.000472 s, 0 cls,  with 0 lits, 0 strengthed 
c [STAT] SuSi(2) 10570 subs-steps, 22608 strenght-steps, 0 increases, 0.001148s strengthening 
c [STAT] EE 0.001014 s, 0 steps 0 ee-lits 0 removedCls, 0 removedSubCls,
c [STAT] EE-gate 7e-05 s, 0 steps, 0.000788 extractGateTime, 
c [STAT] BVE(1) 0.002861 s, 0.001739 s spent on subsimp, 36 vars tested, 36 anticipations, 442 vars skipped, 1856 checks, 
c [STAT] BVE(2) 383 rem cls, with 1180 lits, 0 learnts rem, with 0 lits, 917 new cls, with 3836 lits, 0 new learnts, with 0 lits, 
c [STAT] BVE(3) 36 vars eliminated, 0 units enqueued, 0 BC removed, with 0 lits, 0 blocked learnts removed, with 0 lits, 
c [STAT] BVE(4) 0 gateDefs, 0 usedGates, 7e-05 gateSeconds, 
c [STAT] BVE(5) 34 incElims, 0 keepElims, 2 decElims, 534 totalAdds,
c [STAT] UNHIDE 0.001906 s, 0 cls, 0 totalLits, 0 lits 
c [STAT] UNHIDE(2) 0 prSecs, 0 prSteps, 0 L1units, 0 L2units, 0 L3units, 0 L4units, 0 L5units, 
c [STAT] UNHIDE(3) 0 EE-checks, 0 EE-cands, 0 EEs 
c [STAT] XOR 0.00135s, 0.001267 parse-s, 6.4e-05 reason-s, 
c [STAT] XOR(2) 0 xors, 0 subXors, 0 resXors, 0 clauses, 0 resClauses, 0 resTauts, 0 resStrength, 3389 findChecks, 
c [STAT] XOR(3) 0 steps, 520 empties, 0 listUnits, 0 useLists, 0 xorUnits, 0 eqs, 
c [STAT] XOR(4) 1960 participating, 0.835109 ratio, 0 simDecisions, 0 xorProps, 0 clsProps, 
c [STAT] BCE 0.001848 seconds, 14222 steps, 894 testLits, 0 remBCE, 0 BCMs, 0 BCMcands, 0 BCMlits, 
c [STAT] CLE 0 remCLE, 0 cleUnits, 
c [STAT] BCE-CLA 0 seconds, 0 steps, 0 testLits, 0 extClss, 0 extLits, 0 possibles, 
c [STAT] FM 0.004283 s, 0.000194 amo-s, 0.009776 fm-s, 0.000862 amt-s, 0 amos, 0 amts, 0 sameUnits, 0 deducedUnits, 0 propUnits, 0 cls, 0 steps, 21347 searchSteps, 0 addDups, 
c [STAT] FM(2) 0 irregulars, 0 pureAmoLits, 0 diff, 0 discards, 0 addedCs, 0 removedCs, 0 newAmos, 0 discardedNewAmos, 
c [STAT] FM(3) 0 newAmoBinCls, 0 newCls, 0 newAlos, 0 newAlks, 0 duplicates, 0 garbageCollecst, 
c [STAT] FM(4) 4e-06 2PrdTime, 0 2PrAmos, 0 2PrLits, 3e-06 dedAloTime, 0 dedAlos, 
c [STAT] FM(5) time: 0.003037 s,steps: 21207 cards: 0 failed: 3394 extLits: 0 redDegree: 0 probes: 3975 conflictProbes: 0 savedPreCls: 0 savedPostCls: 0 units: 9572
c [STAT] DENSE 36 gaps
c Riss 7.1 used 1 seconds with exit code 10
c pp-time: 0 SLS-time: 224  CDCL-time: 1
c solved with: Riss 7.1
 c
c SparrowToRiss 2018
c Adrian Balint, Norbert Manthey
c
c undo: /home/lorenz/SAT2018/s2r_bin/tmp/cp_undo_47280 tmpCNF: /home/lorenz/SAT2018/s2r_bin/tmp/cp_tmpCNF_47280 model: /home/lorenz/SAT2018/s2r_bin/tmp/cp_model_47280 realModel: /home/lorenz/SAT2018/s2r_bin/tmp/model_47280
c preprocessed 0 seconds with exit code 0
c not solved by preprocessor -- do search
c post-process with coprocessor
c WARNING: for repeatability, setting FPU to use double precision
c =================[ riss (core) 7.1.0                    v7.1.0-dirty ]===================================
c | Norbert Manthey. The use of the tool is limited to research only!                                     |
c | Based on Minisat 2.2 and Glucose 2.1  -- thanks!                                                      |
c | Contributors:                                                                                         |
c |      Kilian Gebhardt                                                                                  |
c |      Lucas Kahlert, Franziska Krüger, Aaron Stephan                                                   |
c ============================[ Problem Statistics ]=======================================================
c |                                                                                                       |
c |  Number of variables:                260                                                              |
c |  Number of clauses:                 1430                                                              |
c |  Number of total literals:          4290                                                              |
c |  Parse time:                        0.00 s                                                            |
c |                                                                                                       |
c ========================================[ MAGIC CONSTANTS ]==============================================
c | Constants are supposed to work well together :-)                                                      |
c | however, if you find better choices, please let us known...                                           |
c |-------------------------------------------------------------------------------------------------------|
c |                                |                                |                                     |
c | - Restarts:                    | - Reduce Clause DB:            | - Minimize Asserting:               |
c |   * LBD Queue    :     50      |   * First     :   4000         |    * size <  30                     |
c |   * Trail  Queue :   5000      |   * Inc       :    300         |    * lbd  <   6                     |
c |   * K            :   0.80      |   * Special   :   1000         |                                     |
c |   * R            :   1.40      |   * Protected :  (lbd)< 30     |                                     |
c |                                |                                |                                     |
c =========================================================================================================
c =========================================================================================================
c | solve clauses:         1964  solve variables:          224                                            |
c =========================================================================================================
c ==================================[ Search Statistics (every  10000 conflicts) ]=========================
c |                                                                                                       |
c |          RESTARTS           |          ORIGINAL         |              LEARNT              | Progress |
c |       NB   Blocked  Avg Cfc |    Vars  Clauses Literals |   Red   Learnts    LBD2  Removed |          |
c =========================================================================================================
c |        4         0     2500 |     260     1964     6946 |     1     8040       50     1959 |  0.002 % | 
c |        4       153     5000 |     259     1934     6831 |     3     4000       87     9839 |  0.448 % | 
c =========================================================================================================
c Tinimt-Ratios: ratioCpW: 0.90 ,overhead/Total 0.18 0.18 
c Timing(cpu,wall, in s): total: 0.52 0.57 ,prop: 0.32 0.36 ,analysis: 0.09 0.10 ,ext.Res.: 0.00 0.00 ,reduce: 0.00 0.00 ,overhead 0.09 0.10
c PP-Timing(cpu,wall, in s): preprocessing( 1 ): 0.01 0.01 ,inprocessing (0 ): 0.00 0.00
c Trivial Polarity: True: 0  False: 0
c Learnt At Level 1: 2  Multiple: 0 Units: 0
c LAs: 0.000000 laSeconds 0 LA assigned: 0 tabus: 0, failedLas: 0, maxEvery 0, eeV: 0 eeL: 0 
c otfss: 0 (l1: 0 ),cls: 0 ,units: 0 ,binaries: 0, eagerCandidates: 0
c learning: 23061 cls, 11.113482 avg. size, 7.464681 avg. LBD, 31 maxSize
c res.ext.res.: 0 rer, 0 rerSizeCands, 0 sizeReject, 0 patternReject, 0 bloomReject, 0 maxSize, 0.00 avgSize, 0.00 totalLits, 0 gates
c ER rewrite: 0 cls, 0 lits
c i.cls.strengthening: 0.00 seconds, 0 calls, 0 candidates, 0 droppedBefore, 0 shrinked, 0 shrinkedLits
c bi-asserting: 0 pre-Mini, 0 post-Mini, 0.000 rel-pre, 0.000 rel-post
c search-UHLE: 0 attempts, 0 rem-lits
c revMin: 7435 tries 43 succesful 43 dropped 0 cut 43 conflicts
c decisionClauses: 0
c IntervalRestarts: 0
c partial restarts: 0 saved decisions: 0 saved propagations: 0 recursives: 2
c uhd probe: 0.000000 s, 0 L2units, 0 L3units, 0 L4units
c LCM: 0.000000 s, 0 nbLCM, 0 LCMclsAttempts, 0 nbLCMclsSuccess, 0 npConflLCMlits, 0 nbLCMlits, 0 falsified, 0 positiveDrop, 0 litsR1, 0 litsR2
c restarts              : 4 (5765 conflicts in avg)
c blocked restarts      : 205 (multiple: 1) 
c last block at restart : 4
c nb ReduceDB           : 3
c nb removed Clauses    : 9839
c nb learnts DL2        : 121
c nb learnts size 2     : 25
c nb learnts size 1     : 2
c conflicts             : 23061          (44483 /sec)
c decisions             : 27221          (0.00 % random) (52507 /sec)
c propagations          : 849689         (1638975 /sec)
c conflict literals     : 256331         (23.89 % deleted)
c nb reduced Clauses    : 0
c Memory used           : 9.00 MB
c CPU time              : 0.518427 s
s SATISFIABLE
v -1 2 -3 -4 5 6 -7 8 9 -10 11 12 -13 -14 -15 16 17 18 -19 20 21 -22 23 24 -25 -26 27 28 -29 30 -31 -32 33 -34 35 -36 37 38 39 40 -41 42 -43 44 -45 -46 47 -48 49 -50 51 52 53 -54 -55 56 -57 -58 59 -60 61 62 -63 -64 -65 66 67 68 -69 70 71 -72 73 -74 75 -76 -77 78 79 80 81 82 -83 -84 85 -86 -87 88 89 90 91 -92 93 94 95 96 97 -98 99 -100 -101 -102 103 -104 105 -106 107 -108 -109 -110 -111 -112 113 -114 -115 -116 117 118 -119 -120 121 122 123 124 125 -126 127 128 129 130 131 -132 133 134 135 136 137 -138 -139 -140 -141 142 143 -144 145 -146 -147 -148 -149 150 151 -152 -153 154 155 156 157 -158 -159 160 161 162 -163 -164 165 166 167 168 169 -170 171 -172 173 -174 175 176 -177 178 -179 -180 -181 -182 -183 184 -185 -186 -187 188 -189 -190 -191 192 193 194 -195 196 -197 -198 -199 200 201 202 -203 204 -205 206 -207 -208 209 210 -211 212 -213 214 -215 216 217 -218 219 -220 221 222 223 224 -225 226 227 228 229 230 231 -232 233 234 -235 236 -237 238 239 240 241 242 -243 -244 245 -246 -247 -248 249 250 251 -252 253 -254 255 256 257 258 259 -260 0

